WARNING: for repeatability, setting FPU to use double precision
============================[ Problem Statistics ]=============================
|                                                                             |
|  Number of variables:        215510                                         |
|  Number of clauses:          494192                                         |
|  Parse time:                   0.15 s                                       |
|                                                                             |
============================[ Search Statistics ]==============================
| Conflicts |          ORIGINAL         |          LEARNT          | Progress |
|           |    Vars  Clauses Literals |    Limit  Clauses Lit/Cl |          |
===============================================================================
|       100 |  118186   472929  1063244 |   173407      100      9 | 45.160 % |
|       250 |  118186   472929  1063244 |   190748      250     21 | 45.160 % |
===============================================================================
restarts              : 3
conflicts             : 347            (1084 /sec)
decisions             : 5214           (0.00 % random) (16293 /sec)
propagations          : 1132143        (3537726 /sec)
conflict literals     : 8507           (3.78 % deleted)
Memory used           : 56.00 MB
CPU time              : 0.32002 s

SATISFIABLE
